16
0 
6 0 
5 1 0 
3 4 5 0 
11 17 16 13 0 
8 14 13 11 4 0 
7 13 12 10 6 1 0 
1 6 6 3 11 8 7 0 
12 17 16 15 8 5 5 12 0 
8 13 12 11 8 4 3 8 4 0 
26 32 31 28 16 17 18 26 15 19 0 
5 11 10 8 7 3 2 5 7 3 20 0 
5 11 10 8 7 3 2 5 7 4 21 0 0 
5 11 11 8 6 3 2 5 7 4 20 1 1 0 
7 13 12 9 4 3 3 6 8 6 20 3 3 2 0 
1 7 6 5 11 8 7 2 11 7 25 5 4 5 7 0 
